Maximize
  6.1093487737126412e-04 Z_65_0_0 + 9.4986653138168545e-04 Z_65_0_1
   + 0.548195398505969 Z_65_0_2 + 9.8863620837373275e-04 Z_65_0_3
   + 0.3492551638769043 Z_65_0_4 + 0.0201443405332794 Z_65_1_0
   + 0.1009637017448764 Z_65_1_1 + 0.035652535772752 Z_65_1_2
   + 0.0157225840066153 Z_65_1_3 + 0.727516837942477 Z_65_1_4
   + 6.1093487737126412e-04 Z_65_8_0 + 9.4986653138168545e-04 Z_65_8_1
   + 0.548195398505969 Z_65_8_2 + 9.8863620837373275e-04 Z_65_8_3
   + 0.3492551638769043 Z_65_8_4 + 0.6841452629790356 Z_224_1_0
   + 0.0156761489224665 Z_224_1_1 + 0.014095577920291 Z_224_1_2
   + 0.1074020977501139 Z_224_1_3 + 0.0786809124280931 Z_224_1_4
   + 9.7925048304422016e-04 Z_224_2_0 + 0.00404102034827439 Z_224_2_1
   + 0.8293404596176143 Z_224_2_2 + 0.00496024473844222 Z_224_2_3
   + 0.0606790248126249 Z_224_2_4 + 0.00338172082434375 Z_224_0_0
   + 0.0369406585036527 Z_224_0_1 + 0.0184884848207989 Z_224_0_2
   + 0.0170157286706573 Z_224_0_3 + 0.8241734071805474 Z_224_0_4
   + 0.0183061883011121 Z_224_5_0 + 0.179251236189551 Z_224_5_1
   + 0.00819003805750062 Z_224_5_2 + 0.0479632657380723 Z_224_5_3
   + 0.6462892717137639 Z_224_5_4 + 0.00338172082434375 Z_224_3_0
   + 0.0369406585036527 Z_224_3_1 + 0.0184884848207989 Z_224_3_2
   + 0.0170157286706573 Z_224_3_3 + 0.8241734071805474 Z_224_3_4 + [
   0.1511965856843218 Z_65_0_0 * Z_224_1_0
   + 0.0666409515393402 Z_65_0_0 * Z_224_5_0
   + 0.0433568029546851 Z_65_0_0 * Z_224_3_0
   + 0.1511965856843218 Z_65_0_1 * Z_224_1_1
   + 0.0666409515393402 Z_65_0_1 * Z_224_5_1
   + 0.0433568029546851 Z_65_0_1 * Z_224_3_1
   + 0.1511965856843218 Z_65_0_2 * Z_224_1_2
   + 0.0666409515393402 Z_65_0_2 * Z_224_5_2
   + 0.0433568029546851 Z_65_0_2 * Z_224_3_2
   + 0.1511965856843218 Z_65_0_3 * Z_224_1_3
   + 0.0666409515393402 Z_65_0_3 * Z_224_5_3
   + 0.0433568029546851 Z_65_0_3 * Z_224_3_3
   + 0.1511965856843218 Z_65_0_4 * Z_224_1_4
   + 0.0666409515393402 Z_65_0_4 * Z_224_5_4
   + 0.0433568029546851 Z_65_0_4 * Z_224_3_4
   + 0.1511965856843218 Z_65_1_0 * Z_224_1_0
   + 0.0666409515393402 Z_65_1_0 * Z_224_5_0
   + 0.0433568029546851 Z_65_1_0 * Z_224_3_0
   + 0.1511965856843218 Z_65_1_1 * Z_224_1_1
   + 0.0666409515393402 Z_65_1_1 * Z_224_5_1
   + 0.0433568029546851 Z_65_1_1 * Z_224_3_1
   + 0.1511965856843218 Z_65_1_2 * Z_224_1_2
   + 0.0666409515393402 Z_65_1_2 * Z_224_5_2
   + 0.0433568029546851 Z_65_1_2 * Z_224_3_2
   + 0.1511965856843218 Z_65_1_3 * Z_224_1_3
   + 0.0666409515393402 Z_65_1_3 * Z_224_5_3
   + 0.0433568029546851 Z_65_1_3 * Z_224_3_3
   + 0.1511965856843218 Z_65_1_4 * Z_224_1_4
   + 0.0666409515393402 Z_65_1_4 * Z_224_5_4
   + 0.0433568029546851 Z_65_1_4 * Z_224_3_4 ] / 2 
Subject To
 constraint1_650: Z_65_0_0 + Z_65_0_1 + Z_65_0_2 + Z_65_0_3 + Z_65_0_4
   <= 1
 constraint1_651: Z_65_1_0 + Z_65_1_1 + Z_65_1_2 + Z_65_1_3 + Z_65_1_4
   <= 1
 constraint1_658: Z_65_8_0 + Z_65_8_1 + Z_65_8_2 + Z_65_8_3 + Z_65_8_4
   <= 1
 constraint1_2241: Z_224_1_0 + Z_224_1_1 + Z_224_1_2 + Z_224_1_3
   + Z_224_1_4 <= 1
 constraint1_2242: Z_224_2_0 + Z_224_2_1 + Z_224_2_2 + Z_224_2_3
   + Z_224_2_4 <= 1
 constraint1_2240: Z_224_0_0 + Z_224_0_1 + Z_224_0_2 + Z_224_0_3
   + Z_224_0_4 <= 1
 constraint1_2245: Z_224_5_0 + Z_224_5_1 + Z_224_5_2 + Z_224_5_3
   + Z_224_5_4 <= 1
 constraint1_2243: Z_224_3_0 + Z_224_3_1 + Z_224_3_2 + Z_224_3_3
   + Z_224_3_4 <= 1
 constraint2_650: Z_65_0_0 + Z_65_1_0 + Z_65_8_0 <= 1
 constraint2_651: Z_65_0_1 + Z_65_1_1 + Z_65_8_1 <= 1
 constraint2_652: Z_65_0_2 + Z_65_1_2 + Z_65_8_2 <= 1
 constraint2_653: Z_65_0_3 + Z_65_1_3 + Z_65_8_3 <= 1
 constraint2_2240: Z_224_1_0 + Z_224_2_0 + Z_224_0_0 + Z_224_5_0
   + Z_224_3_0 <= 1
 constraint2_2241: Z_224_1_1 + Z_224_2_1 + Z_224_0_1 + Z_224_5_1
   + Z_224_3_1 <= 1
 constraint2_2242: Z_224_1_2 + Z_224_2_2 + Z_224_0_2 + Z_224_5_2
   + Z_224_3_2 <= 1
 constraint2_2243: Z_224_1_3 + Z_224_2_3 + Z_224_0_3 + Z_224_5_3
   + Z_224_3_3 <= 1
Bounds
Binaries
 Z_65_0_0 Z_65_0_1 Z_65_0_2 Z_65_0_3 Z_65_0_4 Z_65_1_0 Z_65_1_1 Z_65_1_2
 Z_65_1_3 Z_65_1_4 Z_65_8_0 Z_65_8_1 Z_65_8_2 Z_65_8_3 Z_65_8_4 Z_224_1_0
 Z_224_1_1 Z_224_1_2 Z_224_1_3 Z_224_1_4 Z_224_2_0 Z_224_2_1 Z_224_2_2
 Z_224_2_3 Z_224_2_4 Z_224_0_0 Z_224_0_1 Z_224_0_2 Z_224_0_3 Z_224_0_4
 Z_224_5_0 Z_224_5_1 Z_224_5_2 Z_224_5_3 Z_224_5_4 Z_224_3_0 Z_224_3_1
 Z_224_3_2 Z_224_3_3 Z_224_3_4
End
